p cnf 13 42
13 -12 -9 0
-13 -12 8 0
13 -11 -7 0
-13 -11 2 0
13 9 4 0
13 8 -7 0
-13 -8 -6 0
13 -7 5 0
-13 -5 -4 0
13 5 1 0
12 11 -8 0
12 11 2 0
12 -11 -1 0
-12 -10 -4 0
-12 10 4 0
-12 9 6 0
12 7 -4 0
-12 -6 -1 0
11 10 -9 0
-11 9 -8 0
11 -8 6 0
-11 -8 4 0
11 8 3 0
-11 -6 -5 0
-11 6 4 0
11 -6 1 0
-11 5 -1 0
11 3 1 0
-10 7 6 0
-10 -7 -5 0
10 -7 3 0
-10 -5 3 0
-9 8 -7 0
9 -8 7 0
9 5 3 0
-9 -5 -3 0
9 4 -2 0
-8 -7 -3 0
-8 -7 2 0
-7 6 1 0
-7 -5 3 0
7 -3 -1 0
